qe/outputs/qe/cbrdelay_obs_newl/T=5,eliminate=[I_0,I_1,I_2,I_3,I_4,L_2,L_3,L_4,C,B,lhs=Q_4].smt2
; benchmark generated from python API
(set-info :status unknown)
(declare-fun S_1 () Real)
(declare-fun S_2 () Real)
(declare-fun S_4 () Real)
(declare-fun L_0 () Real)
(declare-fun A_0 () Real)
(declare-fun S_0 () Real)
(declare-fun A_1 () Real)
(declare-fun L_1 () Real)
(declare-fun A_2 () Real)
(declare-fun A_3 () Real)
(declare-fun A_4 () Real)
(declare-fun Q_4 () Real)
(declare-fun S_3 () Real)
(assert
 (let (($x1087 (<= (+ (* (- 2.0) S_4) (* (- 1.0) A_0) (* 3.0 S_2) L_0) 0.0)))
 (let (($x13930 (<= (+ (* (/ 1.0 2.0) L_1) (* (- (/ 1.0 2.0)) A_1) (* (- (/ 1.0 2.0)) S_4) S_2) 0.0)))
 (let (($x1236 (<= (+ (* (- (/ 1.0 2.0)) S_4) (* (- 1.0) A_0) (* (/ 3.0 2.0) S_1) L_0) 0.0)))
 (let (($x34 (>= L_0 0.0)))
 (let (($x55547 (<= 0.0 (+ (* (- 1.0) Q_4) A_4 (* (- 1.0) A_3)))))
 (let (($x55548 (not $x55547)))
 (let (($x55120 (not (<= 0.0 (+ S_4 (* (- 2.0) Q_4) (* (- 1.0) S_2))))))
 (let ((?x375 (* (- 1.0) A_2)))
 (let ((?x386 (* (- 1.0) Q_4)))
 (let ((?x367 (* (- 1.0) S_4)))
 (let ((?x248 (* (- 1.0) L_1)))
 (let (($x10061 (<= (+ ?x248 A_1 ?x367 ?x386 A_4 ?x375) 0.0)))
 (let ((?x3995 (* (/ 1.0 3.0) S_1)))
 (let ((?x3992 (* (/ 2.0 3.0) A_4)))
 (let ((?x3982 (* (- (/ 2.0 3.0)) Q_4)))
 (let ((?x3993 (* (- (/ 2.0 3.0)) L_1)))
 (let (($x3990 (<= (+ ?x3993 ?x367 ?x3982 ?x3992 ?x3995) 0.0)))
 (let ((?x3427 (* (/ 1.0 4.0) S_0)))
 (let ((?x3434 (* (/ 3.0 4.0) A_4)))
 (let ((?x3436 (* (- (/ 3.0 4.0)) Q_4)))
 (let ((?x3431 (* (- (/ 3.0 4.0)) L_1)))
 (let (($x3424 (<= (+ ?x3431 ?x367 ?x3436 ?x3434 ?x3427) 0.0)))
 (let ((?x1319 (* 2.0 S_3)))
 (let ((?x381 (* (- 1.0) A_4)))
 (let ((?x1364 (* 2.0 Q_4)))
 (let ((?x1372 (* 2.0 L_1)))
 (let ((?x1378 (* 3.0 S_3)))
 (let ((?x1345 (* (- 2.0) A_4)))
 (let ((?x2935 (* 3.0 Q_4)))
 (let ((?x373 (* (- 1.0) A_1)))
 (let ((?x1406 (* 3.0 L_1)))
 (let (($x11137 (<= (+ ?x1406 ?x373 ?x2935 ?x1345 ?x1378) 0.0)))
 (let (($x51 (= L_1 L_0)))
 (let (($x56677 (not (<= 0.0 (+ S_4 (* (- 4.0) Q_4) (* (- 1.0) S_0))))))
 (let ((?x1355 (* (- 2.0) A_2)))
 (let ((?x1334 (* 2.0 A_4)))
 (let ((?x1339 (* (- 2.0) Q_4)))
 (let (($x54971 (not (<= 0.0 (+ ?x248 A_1 ?x367 ?x1339 ?x1334 ?x1355)))))
 (let (($x54221 (not (<= 0.0 (+ (* (- (/ 1.0 3.0)) S_4) ?x386 A_4 ?x375 (* (/ 1.0 3.0) S_0))))))
 (let (($x50664 (not (<= 0.0 (+ S_4 ?x386 (* (- 1.0) S_3))))))
 (let (($x55285 (not (<= 0.0 (+ S_4 (* (- 3.0) Q_4) (* (- 1.0) S_1))))))
 (let (($x55124 (not (<= 0.0 (+ S_4 (* (- 3.0) Q_4) (* (- 1.0) A_0) L_0)))))
 (let ((?x3448 (* (/ 1.0 2.0) Q_4)))
 (let ((?x1455 (* (/ 1.0 2.0) S_4)))
 (let ((?x9360 (* (- (/ 1.0 2.0)) A_1)))
 (let ((?x3447 (* (/ 1.0 2.0) L_1)))
 (let (($x57802 (<= 0.0 (+ ?x3447 ?x9360 ?x1455 ?x3448 ?x381 A_3))))
 (let ((?x2486 (* (/ 1.0 2.0) S_2)))
 (let ((?x3443 (* (/ 1.0 2.0) A_4)))
 (let ((?x3442 (* (- (/ 1.0 2.0)) Q_4)))
 (let ((?x3441 (* (- (/ 1.0 2.0)) L_1)))
 (let (($x7181 (<= (+ ?x3441 ?x367 ?x3442 ?x3443 ?x2486) 0.0)))
 (let (($x51983 (<= 0.0 (+ L_1 ?x373 Q_4 ?x381 A_3 S_3))))
 (let ((?x5479 (* (/ 2.0 3.0) S_0)))
 (let ((?x1488 (* (- 2.0) S_3)))
 (let ((?x10051 (* (- (/ 4.0 3.0)) A_2)))
 (let ((?x4017 (* (/ 4.0 3.0) A_4)))
 (let ((?x4016 (* (- (/ 4.0 3.0)) Q_4)))
 (let ((?x8951 (* (/ 4.0 3.0) A_1)))
 (let ((?x10231 (* (- (/ 4.0 3.0)) L_1)))
 (let (($x10468 (<= (+ ?x10231 ?x8951 ?x4016 ?x4017 ?x10051 ?x1488 ?x5479) 0.0)))
 (let (($x3446 (<= (+ ?x3441 ?x3442 ?x3443 (* (- 1.0) S_3) (* (/ 1.0 2.0) S_0)) 0.0)))
 (let ((?x347 (* (- 1.0) S_1)))
 (let ((?x360 (* (- 1.0) S_3)))
 (let ((?x2313 (* 2.0 A_1)))
 (let ((?x1330 (* (- 2.0) L_1)))
 (let (($x2544 (<= (+ ?x1330 ?x2313 ?x1339 ?x360 ?x347) 0.0)))
 (let (($x8515 (<= (+ ?x1406 ?x2935 (* (- 3.0) A_4) (* 4.0 S_3) ?x347) 0.0)))
 (let (($x920 (= Q_4 0.0)))
 (let ((?x1065 (* 2.0 S_2)))
 (let ((?x1516 (* 2.0 A_2)))
 (let ((?x1056 (* 2.0 S_4)))
 (let ((?x2414 (* (- 4.0) A_1)))
 (let ((?x1400 (* 4.0 L_1)))
 (let (($x1250 (<= Q_4 0.0)))
 (let (($x520 (<= 0.0 (+ ?x248 L_0))))
 (let (($x136435 (or $x520 $x1250 (not (<= 0.0 (+ ?x1400 ?x2414 ?x1056 ?x1364 ?x1345 ?x1516 ?x1065))))))
 (let ((?x1389 (* (- 2.0) S_1)))
 (let ((?x3373 (* 6.0 S_2)))
 (let ((?x16852 (* 4.0 A_2)))
 (let ((?x1402 (* (- 4.0) A_4)))
 (let ((?x1401 (* 4.0 Q_4)))
 (let (($x16856 (<= (+ ?x1400 ?x2414 ?x1401 ?x1402 ?x16852 ?x3373 ?x1389) 0.0)))
 (let (($x2540 (<= (+ ?x248 A_1 ?x386 (* (- 1.0) S_2)) 0.0)))
 (let (($x2556 (<= (+ ?x1330 ?x2313 ?x1339 (* (- 1.0) A_0) ?x360 L_0) 0.0)))
 (let ((?x1062 (* (- 1.0) S_0)))
 (let ((?x23590 (* (- 4.0) A_3)))
 (let ((?x1556 (* 4.0 A_4)))
 (let ((?x1559 (* (- 4.0) Q_4)))
 (let ((?x1060 (* (- 3.0) S_4)))
 (let ((?x2339 (* 4.0 A_1)))
 (let ((?x1558 (* (- 4.0) L_1)))
 (let (($x23588 (<= (+ ?x1558 ?x2339 ?x1060 ?x1559 ?x1556 ?x23590 ?x1062) 0.0)))
 (let (($x13822 (<= (+ ?x1330 ?x2313 ?x367 ?x1062 ?x1339) 0.0)))
 (let (($x56844 (<= (+ ?x248 A_1 ?x367 ?x386 A_4 (* (- 1.0) A_3)) (- 5.0))))
 (let (($x55340 (<= (+ ?x3441 (* (/ 1.0 2.0) A_1) (* (- (/ 1.0 2.0)) S_4) ?x3442) (- 5.0))))
 (let (($x136262 (or $x51 $x920 (<= (+ L_1 ?x373 Q_4 ?x381 A_2 (* 2.0 S_1) ?x1062) 0.0))))
 (let (($x53774 (<= (+ ?x248 A_1 ?x386 ?x360) (- 5.0))))
 (let (($x11425 (<= (+ ?x248 A_1 ?x386 A_4 ?x375 ?x1488 S_1) 0.0)))
 (let ((?x4002 (* (/ 2.0 3.0) S_1)))
 (let ((?x4013 (* (/ 1.0 3.0) A_4)))
 (let ((?x4012 (* (- (/ 1.0 3.0)) Q_4)))
 (let ((?x4187 (* (- (/ 1.0 3.0)) L_1)))
 (let (($x4064 (<= (+ ?x4187 ?x4012 ?x4013 ?x360 ?x4002) 0.0)))
 (let ((?x3444 (* (/ 1.0 2.0) S_0)))
 (let ((?x5428 (* (- (/ 3.0 2.0)) A_4)))
 (let ((?x6453 (* (/ 3.0 2.0) Q_4)))
 (let ((?x9654 (* (- (/ 3.0 2.0)) A_1)))
 (let ((?x6321 (* (/ 3.0 2.0) L_1)))
 (let (($x66833 (or $x51 (<= (+ ?x6321 ?x9654 ?x6453 ?x5428 (* (/ 3.0 2.0) A_3) S_3 ?x3444) 0.0))))
 (let (($x21835 (<= (+ ?x2313 ?x1339 (* (- 1.0) A_0) (* (- 1.0) L_0) ?x360) 0.0)))
 (let (($x3273 (not $x51)))
 (let ((?x1911 (* 3.0 S_1)))
 (let ((?x1417 (* 2.0 A_3)))
 (let ((?x2303 (* (- 2.0) A_1)))
 (let ((?x2347 (* (- 3.0) A_3)))
 (let ((?x3317 (* 3.0 A_4)))
 (let ((?x2548 (* (- 3.0) Q_4)))
 (let ((?x1052 (* (- 2.0) S_4)))
 (let ((?x2547 (* 3.0 A_1)))
 (let ((?x1547 (* (- 3.0) L_1)))
 (let (($x23579 (<= (+ ?x1547 ?x2547 ?x1052 ?x2548 ?x3317 ?x2347 ?x347) 0.0)))
 (let ((?x1601 (* (- (/ 3.0 2.0)) Q_4)))
 (let ((?x1538 (* (- (/ 1.0 2.0)) S_4)))
 (let ((?x9355 (* (/ 3.0 2.0) A_1)))
 (let ((?x3029 (* (- (/ 3.0 2.0)) L_1)))
 (let (($x14616 (<= (+ ?x3029 ?x9355 ?x1538 ?x347 ?x1601) 0.0)))
 (let (($x23586 (<= (+ ?x1547 ?x2547 ?x1052 ?x2548 ?x3317 ?x2347 (* (- 1.0) A_0) L_0) 0.0)))
 (let (($x14512 (<= (+ ?x3029 ?x9355 ?x1538 (* (- 1.0) A_0) L_0 ?x1601) 0.0)))
 (let (($x23572 (<= (+ ?x1330 ?x2313 ?x367 ?x1339 ?x1334 (* (- 2.0) A_3) (* (- 1.0) S_2)) 0.0)))
 (let (($x1759 (<= (+ A_1 ?x367 ?x386 A_4 ?x375 (* (- 1.0) L_0)) 0.0)))
 (let (($x58337 (<= 0.0 (+ A_1 ?x375 (* (/ 1.0 2.0) S_3) (* (- (/ 1.0 2.0)) S_0)))))
 (let (($x52577 (<= 0.0 (+ (* (- 1.0) A_3) A_2 S_3 ?x347))))
 (let (($x2512 (<= (+ ?x1330 ?x2313 S_4 ?x1339 (* (- 3.0) S_3)) 0.0)))
 (let (($x3689 (<= (+ A_1 ?x386 A_4 ?x375 ?x1488 S_1 (* (- 1.0) L_0)) 0.0)))
 (let (($x8200 (<= (+ A_1 ?x386 (* (- 1.0) L_0) (* (- 1.0) S_2)) 0.0)))
 (let (($x53550 (not (<= 0.0 (+ ?x367 ?x1339 ?x1334 ?x1355 S_1)))))
 (let (($x53516 (<= 0.0 (+ ?x1455 ?x381 A_3 (* (- (/ 1.0 2.0)) S_1)))))
 (let (($x55130 (not (<= 0.0 (+ L_1 ?x373 S_4 ?x1339)))))
 (let (($x54638 (not (<= 0.0 (+ ?x367 ?x386 A_4 ?x375 S_2)))))
 (let (($x21826 (<= (+ ?x2313 ?x1339 (* (- 2.0) L_0) ?x360 ?x347) 0.0)))
 (let ((?x10221 (* (/ 2.0 3.0) A_2)))
 (let ((?x3991 (* (- (/ 2.0 3.0)) A_4)))
 (let ((?x3867 (* (/ 2.0 3.0) Q_4)))
 (let ((?x3988 (* (/ 2.0 3.0) L_1)))
 (let (($x133372 (or $x51 $x920 (<= (+ ?x3988 (* (- (/ 2.0 3.0)) A_1) ?x3867 ?x3991 ?x10221 ?x5479) (- 10.0)))))
 (let (($x54586 (not (<= (- 5.0) (+ (* (- 1.0) A_3) A_2)))))
 (let (($x24580 (not (<= Q_4 5.0))))
 (let (($x66222 (or $x51 (<= (+ ?x6321 ?x373 ?x6453 (* (- (/ 1.0 2.0)) A_4) (* (/ 3.0 2.0) S_2)) 0.0))))
 (let (($x54822 (not (<= 0.0 (+ S_4 ?x386 (* (- 2.0) S_2) S_0)))))
 (let (($x54543 (<= 0.0 (+ S_4 ?x386 A_4 ?x375 (* (- 4.0) S_2) (* 3.0 S_0)))))
 (let (($x54544 (not $x54543)))
 (let (($x2319 (<= (+ ?x248 A_1 (* (- 1.0) S_2)) 0.0)))
 (let (($x134794 (or $x2319 (<= (+ A_4 (* (- 1.0) A_3) (* (- 1.0) S_2) S_0) 0.0) $x54544 $x54822)))
 (let (($x134162 (or $x2319 (not (<= (+ ?x1355 ?x1417 (* (- 2.0) S_2) (* 2.0 S_0)) 0.0)) (not (<= (+ A_4 ?x375 (* (- 2.0) S_2) (* 2.0 S_0)) 0.0)) $x54544)))
 (let ((?x1430 (* 2.0 L_0)))
 (let ((?x1429 (* (- 2.0) A_0)))
 (let (($x11398 (<= (+ L_1 ?x373 Q_4 ?x381 A_2 ?x1429 ?x1911 ?x1430) 0.0)))
 (let (($x54749 (not (<= 0.0 (+ ?x1406 (* (- 3.0) A_1) ?x1056 Q_4 ?x381 A_2 S_1)))))
 (let (($x133844 (or $x51 (not (<= 0.0 (+ L_1 ?x373 (* (/ 2.0 3.0) S_4) (* (/ 1.0 3.0) S_0)))))))
 (let (($x63604 (or $x520 (not (<= 0.0 (+ ?x1372 ?x2303 S_4 Q_4 ?x381 A_3 S_1))))))
 (let ((?x1061 (* 4.0 S_2)))
 (let ((?x6504 (* 3.0 A_2)))
 (let ((?x3245 (* (- 3.0) A_4)))
 (let ((?x3219 (* (- 3.0) A_1)))
 (let (($x57711 (<= 0.0 (+ S_4 ?x386 A_4 (* (- 1.0) A_3) (* (- (/ 3.0 2.0)) S_3) ?x3444))))
 (let (($x54563 (not (<= 0.0 (+ ?x248 A_1 S_4 ?x386 A_4 (* (- 1.0) A_3) ?x1488)))))
 (let (($x54539 (not (<= 0.0 (+ ?x1558 ?x2339 ?x1056 ?x1339 ?x1334 ?x1355 (* (- 6.0) S_3))))))
 (let (($x64068 (or $x50664 (not (<= 0.0 (+ S_4 ?x386 A_4 ?x375 ?x1488 S_0))) $x54539 $x54563 (not $x57711))))
 (let ((?x1571 (* 2.0 S_1)))
 (let ((?x1085 (* (- 1.0) A_0)))
 (let (($x131781 (or $x51 (<= (+ L_1 ?x373 Q_4 ?x381 A_3 ?x1085 ?x1571 L_0) 0.0))))
 (let (($x53257 (<= 0.0 (+ ?x1372 (* 3.0 S_4) ?x1364 ?x1345 ?x347))))
 (let (($x1015 (not $x920)))
 (let (($x518 (not $x520)))
 (let ((?x4083 (* (- (/ 1.0 3.0)) A_4)))
 (let ((?x4084 (* (/ 1.0 3.0) Q_4)))
 (let ((?x4063 (* (/ 1.0 3.0) L_1)))
 (let (($x32508 (or $x920 (<= (+ ?x4063 ?x4084 ?x4083 ?x1085 (* (/ 4.0 3.0) S_1) L_0) 0.0))))
 (let (($x16879 (<= (+ ?x1400 ?x2414 ?x1401 ?x1402 ?x16852 ?x1429 ?x3373 ?x1430) 0.0)))
 (let ((?x1397 (* 2.0 S_0)))
 (let ((?x1057 (* (- 3.0) S_2)))
 (let ((?x378 (* (- 1.0) A_3)))
 (let (($x65503 (or $x2319 (<= (+ A_3 ?x375 (* (- 1.0) S_2) S_0) 0.0) $x54822 (not (<= 0.0 (+ S_4 ?x386 A_4 ?x378 ?x1057 ?x1397))))))
 (let (($x5919 (<= (+ ?x1406 ?x2935 ?x3245 (* (- 3.0) A_0) ?x3373 (* 3.0 L_0)) 0.0)))
 (let (($x57496 (<= (+ ?x3447 ?x9360 ?x3448 (* (- (/ 1.0 2.0)) A_4) (* (/ 1.0 2.0) A_3) ?x3444) (- 5.0))))
 (let ((?x3807 (* 6.0 S_3)))
 (let ((?x3248 (* 3.0 A_3)))
 (let ((?x11134 (+ (* 6.0 L_1) ?x3219 (* 6.0 Q_4) (* (- 6.0) A_4) ?x3248 ?x3807)))
 (let (($x57474 (<= 0.0 (+ ?x6321 ?x9654 S_4 ?x3448 (* (- (/ 1.0 2.0)) A_4) (* (/ 1.0 2.0) A_3) ?x3444))))
 (let ((?x353 (* (- 1.0) S_2)))
 (let ((?x9223 (* (- (/ 1.0 2.0)) A_3)))
 (let ((?x9136 (* (/ 1.0 2.0) A_1)))
 (let (($x19575 (<= (+ ?x3441 ?x9136 ?x3442 ?x3443 ?x9223 ?x353 ?x3444) 0.0)))
 (let (($x9878 (<= (+ ?x4187 (* (/ 1.0 3.0) A_1) ?x4012 ?x4013 (* (- (/ 1.0 3.0)) A_2) ?x353 ?x5479) 0.0)))
 (let ((?x3456 (* (/ 3.0 4.0) S_0)))
 (let ((?x3455 (* (/ 1.0 4.0) A_4)))
 (let ((?x3454 (* (- (/ 1.0 4.0)) Q_4)))
 (let ((?x3453 (* (- (/ 1.0 4.0)) L_1)))
 (let (($x3458 (<= (+ ?x3453 ?x3454 ?x3455 ?x353 ?x3456) 0.0)))
 (let (($x2550 (<= (+ ?x1547 ?x2547 ?x2548 ?x1488 ?x1062) 0.0)))
 (let (($x1075 (<= (+ ?x373 ?x367 A_2 S_2) 0.0)))
 (let (($x53656 (<= (+ A_1 Q_4 ?x381) (- 15.0))))
 (let (($x53288 (<= (+ (* (/ 1.0 4.0) L_1) (* (/ 1.0 4.0) Q_4) (* (- (/ 1.0 4.0)) A_4) ?x3427) (- 5.0))))
 (let (($x53924 (<= 0.0 (+ ?x1056 ?x1339 ?x1334 ?x1355 (* (- 6.0) S_3) (* 4.0 S_1)))))
 (let (($x53925 (not $x53924)))
 (let (($x66113 (or $x50664 (not (<= 0.0 (+ S_4 ?x386 A_4 ?x378 ?x1488 S_1))) $x53925)))
 (let (($x64996 (or (<= (+ ?x3029 ?x1060 ?x1601 (* (/ 3.0 2.0) A_4) (* (/ 3.0 2.0) S_2)) 0.0) $x10061 $x50664 $x51983)))
 (let ((?x2358 (* (- 3.0) S_0)))
 (let ((?x3007 (+ (* (/ 9.0 2.0) L_1) (* (/ 9.0 2.0) Q_4) (* (- (/ 9.0 2.0)) A_4) (* (/ 15.0 2.0) S_2) ?x2358)))
 (let (($x55603 (or (<= (+ (* (- (/ 2.0 3.0)) S_4) ?x5479) (- 10.0)) (<= (+ ?x248 A_1 ?x367) (- 10.0)))))
 (let (($x54678 (<= 0.0 (+ (* (/ 8.0 3.0) L_1) (* (- (/ 8.0 3.0)) A_1) ?x1056 ?x3867 ?x3991 ?x10221 ?x5479))))
 (let ((?x10453 (* (- (/ 8.0 3.0)) A_1)))
 (let ((?x9980 (* (/ 8.0 3.0) L_1)))
 (let ((?x10746 (+ ?x9980 ?x10453 ?x1056 (* (/ 8.0 3.0) Q_4) (* (- (/ 8.0 3.0)) A_4) (* (/ 8.0 3.0) A_2) ?x5479)))
 (let (($x137135 (or $x920 (<= (+ ?x1406 ?x2935 ?x3245 ?x1085 (* 4.0 S_3) L_0) 0.0))))
 (let (($x131903 (or (<= (+ ?x1330 ?x2313 S_4 (* (- 3.0) S_3)) 0.0) (<= (+ S_4 ?x1488 S_0) 0.0))))
 (let (($x458 (or (not $x1250) $x920)))
 (let (($x108 (>= S_1 S_0)))
 (let (($x111 (>= S_2 S_1)))
 (let (($x114 (>= S_3 S_2)))
 (let (($x117 (>= S_4 S_3)))
 (let (($x119 (>= A_1 A_0)))
 (let (($x121 (>= A_3 A_2)))
 (let (($x122 (>= A_4 A_3)))
 (and (<= (+ A_1 ?x248) S_4) $x122 $x121 $x119 $x117 $x114 $x111 $x108 (or $x51 $x518) $x458 (or $x51 (<= (+ L_1 ?x373 Q_4 S_1) 0.0)) (<= (+ ?x360 S_1) (- 5.0)) (<= (+ S_4 (* (- 3.0) S_3) ?x1571) 0.0) (<= (+ ?x1488 ?x1911 ?x1062) 0.0) (<= (+ ?x1085 ?x360 ?x1571 L_0) 0.0) (or $x920 (<= (+ ?x4063 ?x4084 ?x4083 ?x3995) (- 5.0))) (or $x2540 $x4064 $x51983 $x52577) (or $x2319 (<= (+ (* (- 2.0) S_2) ?x1397) (- 10.0))) (<= (+ L_1 S_4 Q_4 ?x381) 0.0) $x131903 (or $x1015 $x53925) (or $x920 (<= (+ ?x6321 ?x6453 ?x5428 (* (/ 3.0 2.0) S_2)) (- 15.0))) (or (<= (+ ?x248 A_1 ?x360) (- 5.0)) (<= (+ ?x360 S_0) (- 10.0))) (or $x2319 (<= (+ (* (/ 1.0 3.0) S_3) ?x353 ?x5479) 0.0)) (or $x920 (<= (+ ?x1372 ?x1364 ?x1345 ?x1378 ?x353) 0.0)) $x137135 (or $x920 (<= (+ ?x1406 ?x373 ?x1364 ?x1345 ?x1378) 0.0)) (or $x2319 (<= (+ S_4 (* (- 4.0) S_2) (* 3.0 S_0)) 0.0)) (or $x51 (<= ?x10746 0.0) $x54678) (or $x51 $x920 (not $x54678)) (or $x51 (not (<= 0.0 (+ L_1 ?x373 S_4 ?x353 S_0)))) (or $x51 (<= (+ L_1 ?x373 Q_4 ?x381 A_3 S_1) (- 5.0))) (or $x51 (<= (+ L_1 ?x373 Q_4 ?x381 A_3 S_2) 0.0)) (or $x51 $x920 (<= (+ L_1 ?x373 Q_4 ?x381 A_2 S_3) 0.0)) (or $x920 (<= (+ ?x1400 ?x1401 ?x1402 (* 5.0 S_3) ?x1062) 0.0)) (or $x1759 $x2550 $x3273 $x3424 $x51983) (or $x1759 $x2540 $x3273 $x3424 $x51983) (or $x53288 $x53656 $x55547) $x55603 (or $x1075 $x2544 $x10061 $x51983) (or $x51 (<= (+ ?x1372 ?x2303 S_2 S_0 ?x1364) 0.0)) (or $x920 (<= ?x3007 0.0)) (or $x51 (not $x2319)) (or $x3424 $x10061 $x50664 $x51983) (or $x2550 $x3424 $x10061 $x51983) $x64996 (or $x7181 $x10061 $x51983 $x53774) (or $x51 (not (<= 0.0 (+ L_1 ?x373 S_4 ?x360 S_1)))) (or $x1075 $x2550 $x11425 $x53516) (or $x2540 $x3424 $x10061 $x53516) (or $x51 (<= (+ ?x1406 ?x3219 S_3 ?x1397 ?x2935) 0.0)) (or (<= (+ ?x1406 ?x2303 Q_4 ?x381 (* 3.0 S_2)) 0.0) $x55547) (or $x920 (<= (+ ?x1406 ?x2303 Q_4 ?x381 (* 3.0 S_2)) 0.0)) $x66113 (or $x920 $x53288 $x53656) (or $x1075 $x2550 $x10061 $x51983) (or $x50664 $x53550 $x55548) (or $x50664 $x54638 $x55548) (or $x54221 $x54971 $x55130 $x55548) (or $x518 $x1759 $x3424 $x8200 $x55548) (or $x10061 $x51983 $x53257 $x53774) (or $x3273 $x3424 $x10061 $x21826 $x51983) (or $x3273 $x3689 $x4064 $x8200 $x51983) (or $x1075 $x2550 $x11425 $x51983) (or $x3273 $x3424 $x8200 $x9878 $x19575) (or $x2550 $x3990 $x10061 $x53516) (or $x4064 $x50664 $x51983 $x52577) (or $x2540 $x3458 $x9878 $x51983) (or $x51 (<= (+ ?x1372 ?x2303 ?x1364 ?x381 A_2 ?x1065) 0.0)) (or $x2540 $x3458 $x9878 $x19575) (or $x51 (not $x57474)) (or $x920 (<= (+ L_1 Q_4 ?x381 S_3) (- 5.0))) (or $x51 (<= (+ ?x1406 ?x3219 S_4 ?x2935 ?x3245 ?x3248 ?x1571) 0.0)) (or $x51 (<= (+ ?x1372 ?x2303 S_4 ?x1364 ?x1345 ?x1417 S_0) 0.0)) (or (<= (+ ?x3988 ?x3867 ?x3991 (* (/ 5.0 3.0) S_1) ?x1062) 0.0) $x55547) (or $x920 (<= (+ ?x3988 ?x3867 ?x3991 (* (/ 5.0 3.0) S_1) ?x1062) 0.0)) (or $x51 (not (<= 0.0 (+ L_1 ?x373 ?x1455 (* (/ 1.0 2.0) S_1))))) (or $x51 (<= ?x11134 0.0) $x55547) (or $x51 $x11137 $x55547) (or $x3424 $x10061 $x55340 $x57802) (or $x51 $x57496) (or $x920 $x5919) (or $x1015 $x3446 $x10468) (or $x1075 $x10468 $x50664 $x51983) (or $x53516 $x53550 $x56677) (or $x51 (<= (+ L_1 ?x373 S_0 Q_4) (- 5.0))) (or $x24580 $x54638 $x55548) $x65503 (or $x51 (<= (+ ?x1400 ?x2414 S_4 (* 3.0 S_0) ?x1401) 0.0)) (or $x2540 $x3990 $x10061 $x53516) (or $x51 (<= (+ ?x1400 ?x2414 ?x1056 ?x1401 ?x1402 ?x16852 ?x1065) 0.0) $x55547) (or $x51 (<= (+ ?x1406 ?x3219 ?x1056 ?x2935 ?x3245 ?x6504 S_1) 0.0) $x55547) (or $x3273 $x3689 $x4064 $x50664 $x51983) (or $x51 $x920 (<= (+ L_1 ?x373 Q_4 ?x381 A_2 S_1) (- 10.0))) (or $x51 (<= (+ ?x1372 ?x2303 ?x1364 ?x1345 ?x1417 S_3 S_1) 0.0)) (or $x51 $x11398 $x55547) (or $x51 $x16879 $x55547) (or $x51 $x920 (<= (+ ?x1372 ?x2303 ?x1364 ?x1345 ?x1516 ?x1065) (- 10.0))) (or $x520 $x54749 $x55547) (or $x51 $x920 $x16879) $x32508 (or $x51 (not (<= 0.0 (+ ?x1372 ?x2303 ?x1056 ?x360 S_0)))) (or $x1015 $x2319 $x54544) (or $x518 $x1015 $x1759 $x7181) (or $x518 $x1015 $x1759 $x53257) $x131781 (or $x4064 $x11425 $x50664 $x51983) (or $x7181 $x10061 $x14512 $x23586) (or $x2550 $x4064 $x11425 $x51983) $x64068 (or $x2556 $x3424 $x10061 $x57802) (or $x51 $x920 (<= (+ ?x1406 ?x3219 ?x2935 ?x3245 ?x6504 ?x1061 ?x1062) 0.0)) (or $x7181 $x10061 $x13822 $x23588) (or $x2319 $x54544 $x54822 $x55548) (or $x2556 $x3424 $x10061 $x51983) (or $x2544 $x3424 $x10061 $x51983) (or $x2540 $x3424 $x10061 $x51983) (or $x3424 $x10061 $x51983 $x53774) (or $x3990 $x10061 $x55340 $x56844) (or $x3990 $x10061 $x14512 $x23586) $x63604 (or $x2556 $x3990 $x10061 $x53516) (or $x518 $x1759 $x7181 $x55548 $x56677) (or $x1759 $x3273 $x7181 $x21826 $x51983) (or $x51 $x3990 $x10061 $x53516 (not (<= 0.0 (+ ?x3447 ?x9360 ?x1455 ?x3442)))) (or $x2512 $x4064 $x51983 $x52577) (or $x2550 $x10468 $x54586 $x58337) (or $x8515 $x55547) (or $x51 (not (<= 0.0 (+ ?x1372 ?x2303 S_4 Q_4 S_0)))) (or $x3424 $x10061 $x24580 $x55548) (or $x7181 $x10061 $x24580 $x55548) $x133844 (or $x3990 $x10061 $x24580 $x55548) (or $x51 $x920 $x54749) (or $x51 $x920 $x11398) (or $x51 $x3424 $x10061 (not (<= 0.0 (+ ?x3447 ?x9360 ?x1455 ?x3442))) $x57802) $x134162 $x134794 (or $x2556 $x4064 $x11425 $x51983) $x66222 (or $x24580 $x53550 $x54586) (or $x24580 $x53550 $x55548) (or $x1759 $x3273 $x7181 $x14616 $x55548) (or $x3424 $x10061 $x14616 $x57802) (or $x920 (<= (+ L_1 Q_4 ?x381 ?x1065 ?x347) 0.0)) (or $x1075 $x10061 $x14616 $x23579) (or $x3424 $x55340 $x56844 (not (<= (- 5.0) (+ A_1 ?x375)))) $x133372 (or $x24580 $x54221 $x54971 $x55548) (or $x53516 $x53550 $x55124) (or $x2550 $x3446 $x10468 $x51983) (or $x3273 $x3689 $x4064 $x51983 $x53774) (or $x3990 $x10061 $x50664 $x55548) (or $x3446 $x10468 $x53516 $x53774) (or $x3446 $x10468 $x51983 $x53774) (or $x1759 $x3273 $x3990 $x50664 $x51983) (or $x2512 $x3446 $x10468 $x51983) (or $x3273 $x3446 $x10468 $x21826 $x51983) (or $x1759 $x3273 $x3424 $x14512 $x23586) (or $x1759 $x2556 $x3273 $x7181 $x51983) (or $x53550 $x55548 $x56677) (or $x53550 $x55124 $x55548) (or $x53550 $x55130 $x55548) (or $x54638 $x55285 $x55548) (or $x54638 $x55548 $x56677) (or $x54638 $x55130 $x55548) (or $x2319 $x54221 $x55120 $x55548) (or $x53516 $x53550 $x55120) (or $x1759 $x3273 $x3424 $x8200 $x23572) (or $x1759 $x3273 $x3424 $x13822 $x23588) (or $x51 $x16856 $x55547) (or $x2512 $x3273 $x3689 $x4064 $x51983) (or $x2512 $x4064 $x11425 $x51983) (or $x4064 $x51983 $x52577 $x53774) (or $x2540 $x4064 $x11425 $x51983) (or $x2540 $x3990 $x10061 $x51983) (or $x2540 $x3990 $x10061 $x55548) (or $x2540 $x3990 $x10061 $x23572) (or $x2544 $x10468 $x51983 $x58337) (or $x2544 $x7181 $x10061 $x51983) (or $x2556 $x7181 $x10061 $x51983) (or $x2550 $x7181 $x10061 $x51983) (or $x2550 $x3990 $x10061 $x51983) (or $x1759 $x3273 $x3990 $x21835 $x51983) (or $x1759 $x3273 $x7181 $x55340 $x56844) (or $x2556 $x3990 $x10061 $x55548) (or $x53550 $x55120 $x55548) (or $x51 (<= (+ ?x3447 ?x9360 ?x1538 S_2 ?x3448) 0.0)) (or $x3424 $x10061 $x14616 $x23579) (or $x3424 $x10061 $x13822 $x23588) (or $x2540 $x3424 $x10061 $x23572) (or $x2556 $x3990 $x10061 $x51983) (or $x3424 $x10061 $x14512 $x23586) (or $x3446 $x10468 $x50664 $x51983) (or $x3990 $x10061 $x50664 $x51983) (or $x7181 $x10061 $x50664 $x55548) (or $x7181 $x10061 $x55340 $x56844) (or $x7181 $x10061 $x14616 $x23579) (or $x51 $x3990 $x10061 $x55548 (not (<= 0.0 (+ ?x3447 ?x9360 ?x1455 ?x3442)))) (or $x51 $x7181 $x10061 $x55548 (not (<= 0.0 (+ ?x3447 ?x9360 ?x1455 ?x3442)))) (or $x51 (<= (+ ?x1372 ?x2303 ?x1364 ?x1345 ?x1417 ?x1911 ?x1062) 0.0)) (or $x3424 $x10061 $x55285 $x57802) (or $x3273 $x3446 $x10468 $x21835 $x51983) $x66833 (or $x4064 $x11425 $x51983 $x53774) $x136262 (or $x54221 $x54971 $x55124 $x55548) (or $x3424 $x10061 $x55340 $x56844) (or $x3990 $x10061 $x13822 $x23588) (or $x2556 $x3446 $x10468 $x51983) (or $x51 $x3424 $x10061 $x55548 (not (<= 0.0 (+ ?x3447 ?x9360 ?x1455 ?x3442)))) (or $x2540 $x3446 $x10468 $x51983) (or $x51 $x920 $x16856) $x136435 (or $x54638 $x55124 $x55548) (or $x3990 $x10061 $x55124 $x55548) (or $x8515 (not (<= (+ ?x248 A_3 ?x360 ?x386) 0.0))) (or $x7181 $x10061 $x55124 $x55548) (or $x920 $x8515) (or $x2544 $x3446 $x10468 $x51983) (or $x3424 $x10061 $x55285 $x55548) (or $x7181 $x10061 $x55285 $x55548) (or $x3424 $x10061 $x55120 $x57802) (or $x3990 $x10061 $x55548 $x56677) (or $x3424 $x10061 $x55124 $x55548) (or $x54221 $x54971 $x55285 $x55548) (or $x3424 $x10061 $x50664 $x55548) (or $x50664 $x54221 $x54971 $x55548) (or $x3424 $x10061 $x55548 $x56677) (or $x54221 $x54971 $x55548 $x56677) (or $x51 $x11137 (not (<= 0.0 (+ ?x1372 ?x1364 ?x381 ?x375 ?x1319)))) (or $x3424 $x10061 $x55120 $x55548) (or $x3990 $x10061 $x55120 $x55548) $x34 (<= (+ ?x367 S_2) (- 5.0)) (not (>= (+ L_1 S_4 ?x375) 0.0)) $x1236 (<= (+ ?x367 ?x1571 ?x1062) 0.0) (<= (+ L_1 ?x373 S_1) 0.0) (<= (+ ?x1085 S_0 L_0) 0.0) (<= (+ ?x1538 (* (/ 1.0 2.0) S_1)) (- 5.0)) $x13930 (<= (+ ?x1060 ?x1061 ?x1062) 0.0) $x1087 (<= (+ ?x1052 (* 3.0 S_2) ?x347) 0.0))))))))))))))))))))))))))))))))))))))))))))))))))))))))))))))))))))))))))))))))))))))))))))))))))))))))))))))))))))))))))))))))))))))))))))))))))))))))))))))))))))))))))))))))))))))))))))))))))))))))))))))))))))))))))))))))))))
(check-sat)
